==========================================
SLURM_JOB_ID = 548637
SLURM_NODELIST = gnode22
SLURM_JOB_GPUS = 1
==========================================
/var/spool/slurmd/job548637/slurm_script: line 10: /home/sriaish/keras/bin/activate: No such file or directory
((2, 2), (2, 2), True, 'p')
initial belief setup
variables setup
objective setup
eq1
problem setup
apm 14.139.82.6_gk_model0 <br><pre> ----------------------------------------------------------------
 APMonitor, Version 1.0.1
 APMonitor Optimization Suite
 ----------------------------------------------------------------
 
 
 Warning: there is insufficient data in CSV file 14.139.82.6_gk_model0.csv
 
 --------- APM Model Size ------------
 Each time step contains
   Objects      :            0
   Constants    :            0
   Variables    :          373
   Intermediates:            0
   Connections  :            0
   Equations    :           91
   Residuals    :           91
 
 Number of state variables:            373
 Number of total equations: -           90
 Number of slack variables: -            0
 ---------------------------------------
 Degrees of freedom       :            283
 
 **********************************************
 Steady State Optimization with Interior Point Solver
 **********************************************
  
  
 Info: Exact Hessian

******************************************************************************
This program contains Ipopt, a library for large-scale nonlinear optimization.
 Ipopt is released as open source code under the Eclipse Public License (EPL).
         For more information visit http://projects.coin-or.org/Ipopt
******************************************************************************

This is Ipopt version 3.12.10, running with linear solver ma57.

Number of nonzeros in equality constraint Jacobian...:      984
Number of nonzeros in inequality constraint Jacobian.:        0
Number of nonzeros in Lagrangian Hessian.............:        0

Total number of variables............................:      373
                     variables with only lower bounds:        0
                variables with lower and upper bounds:      373
                     variables with only upper bounds:        0
Total number of equality constraints.................:       90
Total number of inequality constraints...............:        0
        inequality constraints with only lower bounds:        0
   inequality constraints with lower and upper bounds:        0
        inequality constraints with only upper bounds:        0

iter    objective    inf_pr   inf_du lg(mu)  ||d||  lg(rg) alpha_du alpha_pr  ls
   0  3.8999961e+00 9.92e-01 9.88e-01   0.0 0.00e+00    -  0.00e+00 0.00e+00   0
   1  4.1034336e+00 9.61e-01 7.02e+01  -0.4 3.85e-01    -  1.00e+00 3.16e-02f  1
   2  6.1246487e+00 6.92e-01 6.21e+02   0.8 7.43e-01    -  1.00e+00 2.80e-01f  1
   3  6.7977860e+00 6.04e-01 3.37e+04   1.8 4.84e-01    -  9.96e-01 1.27e-01f  1
   4  8.3217633e+00 4.03e-01 8.63e+04   2.2 4.57e-01    -  1.00e+00 3.32e-01f  1
   5  1.0331798e+01 1.39e-01 1.32e+05   2.3 3.00e-01    -  1.00e+00 6.56e-01f  1
   6  1.1054849e+01 4.38e-02 1.19e+05   1.7 1.04e-01    -  1.00e+00 6.85e-01h  1
   7  1.1382694e+01 6.78e-04 2.63e+03   0.4 3.26e-02    -  1.00e+00 9.85e-01h  1
   8  1.1386025e+01 2.14e-05 8.77e+02  -1.5 3.56e-04    -  1.00e+00 9.68e-01h  1
   9  1.1301641e+01 2.22e-16 1.61e-10  -2.3 1.52e-02    -  1.00e+00 1.00e+00h  1
iter    objective    inf_pr   inf_du lg(mu)  ||d||  lg(rg) alpha_du alpha_pr  ls
  10  1.0968879e+01 2.22e-16 1.77e+04  -2.8 1.48e-01    -  5.28e-01 1.00e+00f  1
  11  1.0521548e+01 2.22e-16 2.27e-10  -2.7 3.41e-01    -  1.00e+00 1.00e+00f  1
  12  1.0106939e+01 2.22e-16 4.53e+05  -8.7 2.41e-01    -  6.43e-01 1.00e+00f  1
  13  1.0015708e+01 4.44e-16 3.62e-11  -4.3 6.54e-02    -  1.00e+00 1.00e+00f  1
  14  1.0000011e+01 6.66e-16 3.92e+02 -10.3 9.43e-03    -  9.86e-01 1.00e+00f  1
  15  1.0000000e+01 6.66e-16 5.60e+00 -11.0 5.79e-05    -  9.86e-01 9.17e-01f  1
  16  9.9999999e+00 4.44e-16 9.32e-01  -8.7 8.04e-01    -  8.73e-01 6.85e-01f  1
  17  9.9999999e+00 4.44e-16 8.73e-01  -8.7 6.35e-01    -  1.00e+00 4.28e-01f  2
  18  9.9999999e+00 4.44e-16 2.11e-15  -8.7 2.47e-01    -  1.00e+00 1.00e+00h  1

Number of Iterations....: 18

                                   (scaled)                 (unscaled)
Objective...............:   9.9999999293186423e+00    9.9999999293186423e+00
Dual infeasibility......:   2.1074927852063464e-15    2.1074927852063464e-15
Constraint violation....:   4.4408920985006262e-16    4.4408920985006262e-16
Complementarity.........:   2.5399021696466837e-09    2.5399021696466837e-09
Overall NLP error.......:   2.5399021696466837e-09    2.5399021696466837e-09


Number of objective function evaluations             = 20
Number of objective gradient evaluations             = 19
Number of equality constraint evaluations            = 20
Number of inequality constraint evaluations          = 0
Number of equality constraint Jacobian evaluations   = 19
Number of inequality constraint Jacobian evaluations = 0
Number of Lagrangian Hessian evaluations             = 18
Total CPU secs in IPOPT (w/o function evaluations)   =      0.028
Total CPU secs in NLP function evaluations           =      0.161

EXIT: Optimal Solution Found.
 
 The solution was found.
 
 The final value of the objective function is    9.99999992931864     
 
 ---------------------------------------------------
 Solver         :  IPOPT (v3.12)
 Solution time  :   0.201100000005681      sec
 Objective      :    10.0000001567982     
 Successful solution
 ---------------------------------------------------
 
----------------------------------------
Objective Value:  10.000000157
----------------------------------------
Saving policies
10
--------------------
